solution status: time limit reached
objective value:                    -230.989162285714
x0                                                  1 	(obj:0)
x1                                                  1 	(obj:0)
x3                                                  1 	(obj:0)
x5                                                  1 	(obj:0)
x6                                                  1 	(obj:0)
x11                                                 1 	(obj:0)
x24                                                 1 	(obj:0)
x25                                                 1 	(obj:0)
x28                                                 1 	(obj:0)
x49                                                 1 	(obj:0)
x51                                                 1 	(obj:0)
x52                                                 1 	(obj:0)
x102                                                1 	(obj:0)
x103                                                1 	(obj:0)
x105                                                1 	(obj:0)
x110                                                1 	(obj:0)
x116                                                1 	(obj:0)
x123                                                1 	(obj:0)
x148                                                1 	(obj:0)
x163                                                1 	(obj:0)
x188                                                1 	(obj:0)
x189                                                1 	(obj:0)
x191                                                1 	(obj:0)
x199                                                1 	(obj:0)
x203                                                1 	(obj:0)
x210                                                1 	(obj:0)
x237                                                1 	(obj:0)
x272                                                1 	(obj:0)
x273                                                1 	(obj:0)
x281                                                1 	(obj:0)
x296                                                1 	(obj:0)
x305                                                1 	(obj:0)
x330                                                1 	(obj:0)
x363                                                1 	(obj:0)
x371                                                1 	(obj:0)
x372                                                1 	(obj:0)
x375                                                1 	(obj:0)
x376                                                1 	(obj:0)
x378                                                1 	(obj:0)
x379                                                1 	(obj:0)
x390                                                1 	(obj:0)
x409                                                1 	(obj:0)
x457                                                1 	(obj:0)
x468                                                1 	(obj:0)
x477                                                1 	(obj:0)
x491                                                1 	(obj:0)
x508                                                1 	(obj:0)
x513                                                1 	(obj:0)
x523                                                1 	(obj:0)
x545                                                1 	(obj:0)
x559                                                1 	(obj:0)
x563                                                1 	(obj:0)
x599                                                1 	(obj:0)
x627                                                1 	(obj:0)
x628                                                1 	(obj:0)
x641                                                1 	(obj:0)
x642                                                1 	(obj:0)
x648                                                1 	(obj:0)
x649                                                1 	(obj:0)
x650                                                1 	(obj:0)
x654                                                1 	(obj:0)
x733                                                1 	(obj:0)
x744                                                1 	(obj:0)
x745                                                1 	(obj:0)
x748                                                1 	(obj:0)
x757                                                1 	(obj:0)
x766                                                1 	(obj:0)
x776                                                1 	(obj:0)
x777                                                1 	(obj:0)
x778                                                1 	(obj:0)
x790                                                1 	(obj:0)
x817                                                1 	(obj:0)
x819                                                1 	(obj:0)
x824                                                1 	(obj:0)
x831                                                1 	(obj:0)
x838                                                1 	(obj:0)
x855                                                1 	(obj:0)
x878                                                1 	(obj:0)
x879                                                1 	(obj:0)
x908                                                1 	(obj:0)
x914                                                1 	(obj:0)
x931                                                1 	(obj:0)
x936                                                1 	(obj:0)
x992                                                1 	(obj:0)
x994                                                1 	(obj:0)
x1022                                               1 	(obj:0)
x1084                                               1 	(obj:0)
x1085                                               1 	(obj:0)
x1086                                               1 	(obj:0)
x1087                                               1 	(obj:0)
x1095                                               1 	(obj:0)
x1098                                               1 	(obj:0)
x1114                                               1 	(obj:0)
x1134                                               1 	(obj:0)
x1140                                               1 	(obj:0)
x1151                                               1 	(obj:0)
x1184                                               1 	(obj:0)
x1221                                               1 	(obj:0)
x1232                                               1 	(obj:0)
x1234                                               1 	(obj:0)
x1239                                               1 	(obj:0)
x1249                                               1 	(obj:0)
x1264                                               1 	(obj:0)
x1272                                               1 	(obj:0)
x1294                                               1 	(obj:0)
x1304                                               1 	(obj:0)
x1306                                               1 	(obj:0)
x1313                                               1 	(obj:0)
x1320                                               1 	(obj:0)
x1344                                               1 	(obj:0)
x1361                                               1 	(obj:0)
x1436                                               1 	(obj:0)
x1437                                               1 	(obj:0)
x1466                                               1 	(obj:0)
x1666                                               1 	(obj:0)
x1676                                               1 	(obj:0)
x1751                                               1 	(obj:0)
x1905                                               1 	(obj:0)
x2337                                               1 	(obj:0)
x1298                                               1 	(obj:0)
x1147                                               1 	(obj:0)
x949                                                1 	(obj:0)
x805                                                1 	(obj:0)
x667                                                1 	(obj:0)
x662                                                1 	(obj:0)
x637                                                1 	(obj:0)
x608                                                1 	(obj:0)
x584                                                1 	(obj:0)
x483                                                1 	(obj:0)
x428                                                1 	(obj:0)
x412                                                1 	(obj:0)
x402                                                1 	(obj:0)
x399                                                1 	(obj:0)
x337                                                1 	(obj:0)
x324                                                1 	(obj:0)
x242                                                1 	(obj:0)
x143                                                1 	(obj:0)
x62                                                 1 	(obj:0)
x2872                                               1 	(obj:0)
x2873                                               1 	(obj:0)
x2875                                               1 	(obj:0)
x2879                                               1 	(obj:0)
x2882                                               1 	(obj:0)
x2883                                               1 	(obj:0)
x2884                                               1 	(obj:0)
x2888                              0.0476190476190439 	(obj:0)
x2893                                               1 	(obj:0)
x2894                               0.523809523809533 	(obj:0)
x2900                                               1 	(obj:0)
x2902                                               1 	(obj:0)
x2905                                               1 	(obj:0)
x2910                                               1 	(obj:0)
x2912                                               1 	(obj:0)
x4449                                1.51785714285714 	(obj:32.9412)
x4450                                            0.15 	(obj:-20)
x4451                                     0.150000036 	(obj:-1000)
x4452                                     0.150000036 	(obj:-500)
x4453                                             780 	(obj:-0.0679348)
x4454                                            0.15 	(obj:0)
x4455                                            0.15 	(obj:0)
x4456                                            0.15 	(obj:0)
x4457                                            0.15 	(obj:0)
x4458                                            0.15 	(obj:0)
x4459                                            0.15 	(obj:0)
x4460                                            0.15 	(obj:0)
x4461                                            0.15 	(obj:0)
x4462                                            0.15 	(obj:0)
x4463                                            0.15 	(obj:0)
x4464                                            0.15 	(obj:0)
x4465                                            0.15 	(obj:0)
x4466                                            0.15 	(obj:0)
x4467                                            0.15 	(obj:0)
x4468                                            0.15 	(obj:0)
x4469                                            0.15 	(obj:0)
x4470                                            0.15 	(obj:0)
x4471                                            0.15 	(obj:0)
x4472                                            0.15 	(obj:0)
x4473                                            0.15 	(obj:0)
x4474                                            0.15 	(obj:0)
x4475                                            0.15 	(obj:0)
x4476                                            0.15 	(obj:0)
x4477                                            0.15 	(obj:0)
x4478                                            0.15 	(obj:0)
x4479                                            0.15 	(obj:0)
x4480                                            0.15 	(obj:0)
x4481                                            0.15 	(obj:0)
x4482                                            0.15 	(obj:0)
x4483                                            0.15 	(obj:0)
x4484                                            0.15 	(obj:0)
x4485                                            0.15 	(obj:0)
x4486                                            0.15 	(obj:0)
x4487                                            0.15 	(obj:0)
x4488                                            0.15 	(obj:0)
x4489                                            0.15 	(obj:0)
x4490                                            0.15 	(obj:0)
x4491                                            0.15 	(obj:0)
x4492                                            0.15 	(obj:0)
x4493                                            0.15 	(obj:0)
x4494                                            0.15 	(obj:0)
x4495                                            0.15 	(obj:0)
x4496                                            0.15 	(obj:0)
x4497                                            0.15 	(obj:0)
x4498                                            0.15 	(obj:0)
x4499                                            0.15 	(obj:0)
x4500                                            0.15 	(obj:0)
x4501                                            0.15 	(obj:0)
x4502                                            0.15 	(obj:0)
x4503                                            0.15 	(obj:0)
x4504                                            0.15 	(obj:0)
x4505                                            0.15 	(obj:0)
x4506                                            0.15 	(obj:0)
x4507                                            0.15 	(obj:0)
x4508                                            0.15 	(obj:0)
x4509                                            0.15 	(obj:0)
x4510                                            0.15 	(obj:0)
x4511                                            0.15 	(obj:0)
x4512                                            0.15 	(obj:0)
x4513                                            0.15 	(obj:0)
x4514                                            0.15 	(obj:0)
x4515                                            0.15 	(obj:0)
x4516                                            0.15 	(obj:0)
x4517                                            0.15 	(obj:0)
x4518                                            0.15 	(obj:0)
x4519                                            0.15 	(obj:0)
x4520                                            0.15 	(obj:0)
x4521                                            0.15 	(obj:0)
x4522                                            0.15 	(obj:0)
x4523                                            0.15 	(obj:0)
x4524                                            0.15 	(obj:0)
x4525                                            0.15 	(obj:0)
x4526                                            0.15 	(obj:0)
x4527                                            0.15 	(obj:0)
x4528                                            0.15 	(obj:0)
x4529                                            0.15 	(obj:0)
x4530                                            0.15 	(obj:0)
x4531                                            0.15 	(obj:0)
x4532                                            0.15 	(obj:0)
x4533                                            0.15 	(obj:0)
x4534                                            0.15 	(obj:0)
x4535                                            0.15 	(obj:0)
x4536                                            0.15 	(obj:0)
x4537                                            0.15 	(obj:0)
x4538                                            0.15 	(obj:0)
x4539                                            0.15 	(obj:0)
x4540                                            0.15 	(obj:0)
x4541                                            0.15 	(obj:0)
x4542                                            0.15 	(obj:0)
x4543                                            0.15 	(obj:0)
x4544                                            0.15 	(obj:0)
x4545                                            0.15 	(obj:0)
x4546                                            0.15 	(obj:0)
x4547                                            0.15 	(obj:0)
x4548                                            0.15 	(obj:0)
x4549                                            0.15 	(obj:0)
x4550                                            0.15 	(obj:0)
x4551                                            0.15 	(obj:0)
x4552                                            0.15 	(obj:0)
x4553                                            0.15 	(obj:0)
x4554                                            0.15 	(obj:0)
x4555                                            0.15 	(obj:0)
x4556                                            0.15 	(obj:0)
x4557                                            0.15 	(obj:0)
x4558                                            0.15 	(obj:0)
x4559                                            0.15 	(obj:0)
x4560                                            0.15 	(obj:0)
x4561                                            0.15 	(obj:0)
x4562                                            0.15 	(obj:0)
x4563                                            0.15 	(obj:0)
x4564                                            0.15 	(obj:0)
x4565                                            0.15 	(obj:0)
x4566                                            0.15 	(obj:0)
x4567                                            0.15 	(obj:0)
x4568                                            0.15 	(obj:0)
x4569                                            0.15 	(obj:0)
x4570                                            0.15 	(obj:0)
x4571                                            0.15 	(obj:0)
x4572                                            0.15 	(obj:0)
x4573                                            0.15 	(obj:0)
x4574                                            0.15 	(obj:0)
x4575                                            0.15 	(obj:0)
x4576                                            0.15 	(obj:0)
x4577                                            0.15 	(obj:0)
x4578                                            0.15 	(obj:0)
x4579                                            0.15 	(obj:0)
x4580                                            0.15 	(obj:0)
x4581                                            0.15 	(obj:0)
x4582                                            0.15 	(obj:0)
x4583                                            0.15 	(obj:0)
x4584                                            0.15 	(obj:0)
x4585                                            0.15 	(obj:0)
x4586                                            0.15 	(obj:0)
x4587                                            0.15 	(obj:0)
x4588                                            0.15 	(obj:0)
x4589                                            0.15 	(obj:0)
x4592                                               1 	(obj:0)
x4612                                               1 	(obj:0)
x4619                                               1 	(obj:0)
x4625                                               1 	(obj:0)
x4632                                               1 	(obj:0)
x4636                                               1 	(obj:0)
x4638                                               1 	(obj:0)
x4641                                               1 	(obj:0)
x4643                                               1 	(obj:0)
x4645                                               1 	(obj:0)
x4647                                               1 	(obj:0)
x4651                                               1 	(obj:0)
x4659                                               1 	(obj:0)
x4663                                               1 	(obj:0)
x4666                                               1 	(obj:0)
x4670                                               1 	(obj:0)
x4673                                               1 	(obj:0)
x4680                               0.714285714285708 	(obj:0)
x4681                                               1 	(obj:0)
x4684                                               1 	(obj:0)
x4686                                               1 	(obj:0)
x4689                                               1 	(obj:0)
x4693                                               1 	(obj:0)
x4695                                               1 	(obj:0)
x4700                                               1 	(obj:0)
x4707                                               1 	(obj:0)
x4709                                               1 	(obj:0)
x4711                                               1 	(obj:0)
x4713                                               1 	(obj:0)
x4716                                               1 	(obj:0)
x4718                                               1 	(obj:0)
x4720                                               1 	(obj:0)
x4728                                               1 	(obj:0)
x4730                                               1 	(obj:0)
x4734                                               1 	(obj:0)
x4738                                               1 	(obj:0)
x4742                                               1 	(obj:0)
x4744                                               1 	(obj:0)
x4747                                               1 	(obj:0)
x4750                                               1 	(obj:0)
x4757                                               1 	(obj:0)
x4760                                               1 	(obj:0)
x4763                               0.285714285714292 	(obj:0)
x4767                                               1 	(obj:0)
x4772                                               1 	(obj:0)
x4781                                               1 	(obj:0)
x4783                                               1 	(obj:0)
x4788                                               1 	(obj:0)
x4789                                               1 	(obj:0)
x4793                                               1 	(obj:0)
x4795                                               1 	(obj:0)
x4799                                               1 	(obj:0)
x4802                                               1 	(obj:0)
x4804                                               1 	(obj:0)
x4808                                               1 	(obj:0)
x4811                                               1 	(obj:0)
x4813                                               1 	(obj:0)
x4815                                               1 	(obj:0)
x4817                                               1 	(obj:0)
x4819                                               1 	(obj:0)
x4821                                               1 	(obj:0)
x4837                                               1 	(obj:0)
x4846                                               1 	(obj:0)
x4855                                               1 	(obj:0)
x4859                                               1 	(obj:0)
x4867                                               1 	(obj:0)
x4870                                               1 	(obj:0)
x4873                                               1 	(obj:0)
x4875                                               1 	(obj:0)
x4877                                               1 	(obj:0)
x4879                                               1 	(obj:0)
x4881                                               1 	(obj:0)
x4888                                               1 	(obj:0)
x4895                                               1 	(obj:0)
x4898                                               1 	(obj:0)
x4901                                               1 	(obj:0)
x4905                                               1 	(obj:0)
x4909                                               1 	(obj:0)
x4911                                               1 	(obj:0)
x4912                                               1 	(obj:0)
x4916                                               1 	(obj:0)
x4918                                               1 	(obj:0)
x4920                                               1 	(obj:0)
x4925                                               1 	(obj:0)
x4927                                               1 	(obj:0)
x4931                                               1 	(obj:0)
x4934                                               1 	(obj:0)
x4941                                               1 	(obj:0)
x4943                                               1 	(obj:0)
x4945                                               1 	(obj:0)
x4948                                               1 	(obj:0)
x4950                                               1 	(obj:0)
x4952                                               1 	(obj:0)
x4954                                               1 	(obj:0)
x4962                                               1 	(obj:0)
x4966                                               1 	(obj:0)
x4970                                               1 	(obj:0)
x4974                                               1 	(obj:0)
x4976                                               1 	(obj:0)
x4978                                               1 	(obj:0)
x4981                                               1 	(obj:0)
x4984                                               1 	(obj:0)
x4991                                               1 	(obj:0)
x4996                               0.714285714285708 	(obj:0)
x5001                                               1 	(obj:0)
x5007                                               1 	(obj:0)
x5009                                               1 	(obj:0)
x5015                                               1 	(obj:0)
x5017                                               1 	(obj:0)
x5025                                               1 	(obj:0)
x5027                                               1 	(obj:0)
x5029                                               1 	(obj:0)
x5033                                               1 	(obj:0)
x5036                                               1 	(obj:0)
x5040                                               1 	(obj:0)
x5042                                               1 	(obj:0)
x5045                                               1 	(obj:0)
x5047                                               1 	(obj:0)
x5049                                               1 	(obj:0)
x5051                                               1 	(obj:0)
x5053                                               1 	(obj:0)
x5055                                               1 	(obj:0)
x5090                                               1 	(obj:0)
x5091                                               1 	(obj:0)
x5094                                               1 	(obj:0)
x5111                                               1 	(obj:0)
x5119                                               1 	(obj:0)
x5130                                               1 	(obj:0)
x5133                                               1 	(obj:0)
x5173                                               1 	(obj:0)
x5176                                               1 	(obj:0)
x5177                               0.047619047619051 	(obj:0)
x5183                               0.285714285714292 	(obj:0)
x5193                                               1 	(obj:0)
x5226                                               1 	(obj:0)
x5227                                               1 	(obj:0)
x5228                                               1 	(obj:0)
x5264                                               1 	(obj:0)
x5271                                               1 	(obj:0)
x5273                                               1 	(obj:0)
x5275                                               1 	(obj:0)
x5325                                               1 	(obj:0)
x5332                                               1 	(obj:0)
x5346                                               1 	(obj:0)
x5356                                               1 	(obj:0)
x5365                                               1 	(obj:0)
x5408                                               1 	(obj:0)
x5411                                               1 	(obj:0)
x5447                                               1 	(obj:0)
x5496                               0.952380952380949 	(obj:0)
x5497                                               1 	(obj:0)
x5498                                               1 	(obj:0)
x5513                                               1 	(obj:0)
x5544                                               1 	(obj:0)
x5548                                               1 	(obj:0)
x5550                                               1 	(obj:0)
x5586                                               1 	(obj:0)
x5610                                               1 	(obj:0)
x5612                               0.952380952380956 	(obj:0)
x5615                                               1 	(obj:0)
x5660                                               1 	(obj:0)
x5666                                               1 	(obj:0)
x5668                                               1 	(obj:0)
x5672                                               1 	(obj:0)
x5674                                               1 	(obj:0)
x5677                                               1 	(obj:0)
x5685                                               1 	(obj:0)
x5694                                               1 	(obj:0)
x5695                                               1 	(obj:0)
x5696                                               1 	(obj:0)
x5697                                               1 	(obj:0)
x5698                                               1 	(obj:0)
x5699                                               1 	(obj:0)
x5700                                               1 	(obj:0)
x5701                                               1 	(obj:0)
x5702                                               1 	(obj:0)
x5703                                               1 	(obj:0)
x5704                                               1 	(obj:0)
x5705                                               1 	(obj:0)
x5706                                               1 	(obj:0)
x5709                                               1 	(obj:0)
x5711                                               1 	(obj:0)
x5712                                               1 	(obj:0)
x5714                                               1 	(obj:0)
x5726                                               1 	(obj:0)
x5731                                               1 	(obj:0)
x5735                                               1 	(obj:0)
x5744                                 0.3265306122449 	(obj:0)
x5747                                               1 	(obj:0)
x5752                                               1 	(obj:0)
x5756                                               1 	(obj:0)
x5757                                               1 	(obj:0)
x5761                               0.476190476190467 	(obj:0)
x5764                                               1 	(obj:0)
x5768                                               1 	(obj:0)
x5770                                               1 	(obj:0)
x5774                                               1 	(obj:0)
x5778                                               1 	(obj:0)
x5800                                               1 	(obj:0)
x5801                                               1 	(obj:0)
x5802                                               1 	(obj:0)
x5805                                               1 	(obj:0)
x5817                                 0.6734693877551 	(obj:0)
x5818                                               1 	(obj:0)
x5821                                               1 	(obj:0)
x5826                                               1 	(obj:0)
x5827                                               1 	(obj:0)
x5831                                               1 	(obj:0)
x5836                                               1 	(obj:0)
x5838                                               1 	(obj:0)
x5839                                               1 	(obj:0)
x5844                                               1 	(obj:0)
x5846                                               1 	(obj:0)
x5848                                               1 	(obj:0)
x5856                                               1 	(obj:0)
x5867                                               1 	(obj:0)
x5870                                               1 	(obj:0)
x5876                                               1 	(obj:0)
x5879                                               1 	(obj:0)
x5880                                               1 	(obj:0)
